proyfinal/src/viki/013/experimentInOfficeAgust.take6.output/deaa8ec4-ec19-45ac-a365-3e134314e63d.als.out
Reading from standard input... Use '--help' for help.
============================[ Problem Statistics ]=============================
|                                                                             |
|  Number of variables:         87638                                         |
|  Number of clauses:          161767                                         |
|  Parse time:                   0.03 s                                       |
|                                                                             |
============================[ Search Statistics ]==============================
| Conflicts |          ORIGINAL         |          LEARNT          | Progress |
|           |    Vars  Clauses Literals |    Limit  Clauses Lit/Cl |          |
===============================================================================
|       100 |   62877   107225   267304 |    39315      100      8 | 28.254 % |
|       250 |   62876   107181   267214 |    43247      249     19 | 28.255 % |
|       475 |   62876   107181   267214 |    47572      474     23 | 28.255 % |
|       812 |   62876   107181   267214 |    52329      811     37 | 28.255 % |
|      1318 |   62876   107181   267214 |    57562     1317     43 | 28.255 % |
|      2077 |   62876   107181   267214 |    63318     2076     52 | 28.255 % |
|      3216 |   62876   107181   267214 |    69650     3215     56 | 28.255 % |
|      4924 |   62876   107181   267214 |    76615     4923     62 | 28.255 % |
|      7486 |   62820   106879   266546 |    84276     6026     64 | 28.319 % |
|     11330 |   62820   106879   266546 |    92704     9870     74 | 28.319 % |
===============================================================================
restarts              : 62
conflicts             : 15040          (7894 /sec)
decisions             : 53121          (0.00 % random) (27881 /sec)
propagations          : 19348718       (10155320 /sec)
conflict literals     : 1239381        (48.23 % deleted)
Memory used           : 30.87 MB
CPU time              : 1.90528 s

INDETERMINATE
